c "674961.clq"
p edge 80 304
e 1 5
e 1 6
e 1 9
e 1 10
e 1 22
e 1 25
e 1 28
e 1 34
e 1 37
e 1 43
e 1 47
e 1 75
e 1 79
e 2 5
e 2 13
e 2 19
e 2 35
e 2 41
e 2 47
e 2 53
e 3 5
e 3 6
e 3 7
e 3 9
e 3 10
e 3 11
e 3 12
e 3 14
e 3 18
e 3 20
e 3 23
e 3 31
e 3 39
e 3 45
e 3 57
e 3 60
e 3 73
e 3 75
e 3 79
e 3 80
e 4 5
e 4 6
e 4 7
e 4 8
e 4 14
e 4 15
e 4 18
e 4 20
e 4 25
e 4 30
e 4 34
e 4 36
e 4 38
e 4 45
e 4 46
e 4 56
e 4 65
e 4 68
e 4 73
e 4 79
e 5 6
e 5 7
e 5 8
e 5 9
e 5 10
e 5 11
e 5 12
e 5 13
e 5 14
e 5 16
e 5 19
e 5 21
e 5 22
e 5 23
e 5 27
e 5 34
e 5 37
e 5 43
e 5 44
e 5 46
e 5 48
e 5 54
e 5 57
e 6 7
e 6 8
e 6 9
e 6 11
e 6 14
e 6 20
e 6 24
e 6 26
e 6 28
e 6 32
e 6 33
e 6 35
e 6 36
e 6 55
e 6 56
e 6 62
e 6 64
e 6 75
e 6 76
e 6 78
e 7 8
e 7 12
e 7 16
e 7 18
e 7 19
e 7 21
e 7 24
e 7 29
e 7 31
e 7 53
e 7 58
e 7 59
e 7 66
e 7 68
e 8 10
e 8 15
e 8 16
e 8 17
e 8 23
e 8 31
e 8 42
e 8 52
e 8 63
e 8 76
e 9 18
e 9 38
e 9 49
e 9 53
e 9 59
e 9 69
e 9 70
e 10 11
e 10 13
e 10 15
e 10 16
e 10 17
e 10 26
e 10 29
e 10 32
e 10 33
e 10 34
e 10 39
e 10 43
e 10 51
e 10 53
e 10 61
e 10 69
e 10 71
e 10 76
e 10 77
e 11 12
e 11 17
e 11 20
e 11 23
e 11 27
e 11 31
e 11 35
e 11 37
e 11 38
e 11 46
e 11 50
e 11 52
e 11 54
e 11 58
e 11 60
e 12 13
e 12 15
e 12 22
e 12 26
e 12 41
e 12 44
e 12 51
e 12 67
e 12 71
e 13 28
e 13 38
e 13 43
e 13 52
e 14 17
e 14 25
e 14 27
e 14 28
e 14 30
e 14 32
e 14 47
e 14 55
e 14 65
e 14 70
e 15 24
e 15 32
e 15 46
e 15 49
e 15 57
e 15 67
e 15 72
e 15 77
e 16 27
e 16 39
e 16 66
e 16 69
e 17 21
e 17 29
e 17 33
e 18 19
e 18 22
e 18 26
e 18 30
e 18 36
e 18 66
e 19 21
e 19 33
e 19 42
e 19 50
e 19 54
e 19 62
e 20 25
e 20 40
e 21 56
e 22 24
e 22 30
e 22 44
e 22 45
e 22 48
e 22 49
e 22 68
e 22 73
e 23 42
e 23 74
e 24 39
e 24 40
e 24 72
e 26 35
e 26 52
e 26 62
e 27 29
e 27 37
e 28 48
e 28 55
e 28 61
e 28 70
e 29 45
e 29 50
e 29 66
e 32 36
e 32 41
e 32 50
e 32 59
e 32 63
e 32 75
e 33 79
e 34 42
e 34 44
e 34 47
e 34 80
e 35 40
e 35 64
e 36 41
e 36 49
e 36 54
e 36 58
e 36 60
e 36 63
e 36 72
e 36 74
e 36 77
e 37 40
e 38 48
e 38 56
e 38 58
e 38 59
e 38 64
e 38 71
e 38 77
e 40 71
e 40 80
e 42 65
e 43 60
e 44 55
e 44 62
e 44 68
e 45 51
e 46 61
e 47 51
e 48 64
e 48 67
e 48 78
e 51 61
e 52 57
e 53 78
e 55 70
e 55 78
e 56 63
e 56 67
e 58 69
e 59 76
e 60 65
e 65 73
e 67 72
e 71 74
e 73 74
e 76 80
